proyfinal/src/viki/013/andrea/andrea-localstore/experimentInOfficeAgust.take6/worker_1/8dca8f10-eb68-4900-b8f2-f065a229c207.als.cnf.out
Reading from standard input... Use '--help' for help.
============================[ Problem Statistics ]=============================
|                                                                             |
|  Number of variables:         87638                                         |
|  Number of clauses:          161767                                         |
|  Parse time:                   0.03 s                                       |
|                                                                             |
============================[ Search Statistics ]==============================
| Conflicts |          ORIGINAL         |          LEARNT          | Progress |
|           |    Vars  Clauses Literals |    Limit  Clauses Lit/Cl |          |
===============================================================================
|       100 |   61811   103242   257866 |    37855      100    144 | 29.470 % |
|       250 |   61811   103242   257866 |    41640      250    113 | 29.470 % |
|       475 |   61811   103242   257866 |    45805      475     88 | 29.470 % |
|       812 |   61745   102955   257153 |    50385      712     94 | 29.545 % |
|      1318 |   61745   102955   257153 |    55424     1218    108 | 29.546 % |
|      2077 |   61745   102955   257153 |    60966     1977    125 | 29.545 % |
===============================================================================
restarts              : 15
conflicts             : 2819           (7470 /sec)
decisions             : 10109          (0.00 % random) (26787 /sec)
propagations          : 4278635        (11337496 /sec)
conflict literals     : 321399         (41.92 % deleted)
Memory used           : 24.18 MB
CPU time              : 0.377388 s

UNSATISFIABLE
